S = 6;
start = [|0,0,0,0,2,10,0,0,11,4,0,0,0,0,0,33,0,30,0,0,0,28,0,35,0,0,0,17,0,0,0,0,15,23,19,24|
0,0,25,0,0,34,0,0,0,0,0,0,13,14,0,0,0,0,0,20,0,0,19,0,0,9,0,0,0,2,8,0,0,11,7,0|
0,0,0,17,0,0,15,0,0,0,0,0,0,2,10,9,5,0,0,0,0,0,0,0,0,0,0,28,0,0,0,29,0,0,0,0|
0,0,0,0,4,0,0,0,9,0,0,5,0,0,0,0,31,32,34,0,0,0,29,0,0,0,0,0,15,16,18,0,0,0,0,0|
0,0,15,0,16,24,0,22,0,0,0,0,0,0,0,0,0,8,10,6,0,0,0,9,31,0,35,0,29,0,0,0,26,0,34,0|
0,0,0,31,0,0,25,34,0,26,0,0,15,0,0,23,0,0,22,0,0,0,0,0,0,0,0,7,0,0,0,2,0,0,0,0|
0,0,0,0,0,0,0,0,14,0,0,16,12,11,0,0,0,0,1,0,6,0,0,0,25,0,0,0,0,31,0,28,0,0,0,0|
0,0,0,34,35,31,30,25,0,29,0,28,0,0,0,0,22,21,0,15,18,17,0,0,0,8,0,0,0,0,0,0,6,2,0,0|
0,0,0,0,0,0,0,31,32,0,0,0,0,17,0,0,0,0,19,0,0,0,22,0,0,0,3,0,6,0,9,0,0,0,0,7|
9,8,12,0,0,7,0,0,2,0,3,0,0,0,31,32,34,0,25,0,0,0,0,0,19,0,21,0,0,0,0,0,0,14,16,13|
3,2,6,0,0,0,0,7,0,11,0,0,0,0,0,0,28,27,0,0,36,0,34,0,13,0,0,0,18,0,0,23,0,0,0,19|
15,0,0,0,0,0,0,0,0,0,0,0,0,5,0,0,0,0,0,0,0,0,0,0,0,0,0,26,0,0,0,0,0,0,0,35|
0,0,10,0,0,0,8,0,0,0,0,0,34,0,29,0,0,0,27,25,0,0,0,0,17,0,0,0,0,0,13,0,0,16,14,0|
0,0,0,0,21,0,20,15,0,19,0,14,0,0,0,0,0,0,3,1,0,7,0,0,0,28,26,0,35,33,32,34,0,0,0,0|
0,0,0,26,31,0,0,29,30,0,0,36,0,19,15,0,14,13,0,0,22,0,24,0,0,0,0,2,8,7,0,0,0,6,0,5|
0,0,20,0,0,0,0,17,0,0,23,24,8,0,0,4,0,1,0,11,0,0,12,0,0,0,34,0,0,0,0,0,0,0,0,0|
0,4,0,0,7,0,0,0,0,0,0,0,0,31,0,0,0,0,29,0,0,33,0,0,0,0,13,0,0,0,0,21,0,0,0,17|
0,0,0,0,0,29,0,0,28,0,25,26,0,21,0,0,0,0,15,0,0,0,14,0,5,6,0,0,0,0,1,7,0,0,0,3|
24,0,0,23,0,18,0,0,0,20,0,0,0,0,0,0,11,0,4,0,0,0,1,0,33,0,0,0,0,0,0,0,0,0,0,0|
26,0,31,0,32,28,0,30,29,0,0,0,0,0,0,0,0,0,0,0,0,0,0,0,4,0,2,0,7,0,0,0,0,0,0,6|
0,0,19,0,0,0,21,0,0,0,0,0,0,0,4,3,1,0,0,12,9,10,0,0,36,0,0,0,0,0,0,0,0,0,0,0|
0,0,0,0,0,0,0,4,3,8,2,1,0,34,0,0,0,36,0,0,0,32,0,0,0,17,24,23,21,0,14,0,0,0,0,0|
2,0,0,0,0,0,0,6,5,0,12,0,31,0,28,0,0,0,30,0,0,0,0,0,16,0,0,0,0,20,0,0,0,17,23,0|
36,0,33,35,0,0,0,0,27,0,0,0,21,0,0,0,0,0,0,0,19,20,13,0,0,0,0,0,0,10,0,0,7,0,0,0|
31,0,0,0,0,0,26,0,0,0,0,30,0,0,0,24,20,19,21,0,0,13,18,0,0,0,7,0,0,3,5,1,0,0,0,9|
0,0,0,0,0,0,0,0,0,0,0,0,0,0,0,34,30,0,0,0,0,0,0,36,0,22,17,18,0,0,0,0,16,24,0,23|
29,0,0,0,0,0,0,35,0,27,31,0,0,0,0,0,18,0,23,0,0,0,0,24,9,10,0,0,0,0,0,0,4,0,8,0|
7,0,0,0,0,0,0,0,0,1,0,0,0,0,0,0,32,31,33,0,0,0,0,0,0,24,19,0,0,0,17,0,0,22,0,0|
17,22,0,0,0,0,16,0,24,0,0,0,0,0,0,0,0,0,0,7,0,0,0,12,0,0,0,0,0,27,0,0,34,0,0,0|
19,0,0,20,15,0,0,21,0,0,0,0,0,0,0,0,0,7,0,0,0,0,0,0,0,0,28,0,0,0,0,0,33,0,32,0|
0,0,0,0,36,32,0,26,0,0,0,0,0,24,0,0,0,0,0,16,0,18,0,0,0,7,0,9,0,0,0,0,0,0,0,0|
0,0,0,0,12,0,5,0,0,0,4,3,35,36,0,31,33,34,0,28,29,0,27,0,20,0,0,0,0,24,0,18,0,13,15,14|
0,25,0,0,0,26,0,32,31,0,34,0,17,0,0,13,0,0,20,0,0,0,0,19,0,0,0,0,5,0,0,0,0,0,9,0|
0,0,0,15,0,14,0,0,19,0,22,0,0,6,2,0,0,0,0,0,0,12,9,0,0,0,0,29,0,0,0,0,0,0,0,31|
4,0,5,3,0,2,0,0,0,0,10,9,29,0,0,0,0,0,0,0,0,0,0,0,0,0,0,0,0,18,0,0,0,0,0,0|
0,19,0,21,0,0,17,0,0,0,16,15,0,12,0,7,0,10,0,0,0,6,0,0,0,0,0,0,0,0,0,0,0,0,0,0|];